mp_grid = 1 1 2
num_wann = 8

begin atoms_cart
bohr
Ga         0.0000000000       0.0000000000       0.0000000000
As         2.6834999986699724 2.6834999986699724 8.050499996387863
end atoms_cart

begin kpoints
      0.0000000000       0.0000000000       0.0000000000
      0.0000000000       0.0000000000       0.1000000000
end kpoints

begin unit_cell_cart
ang
      0.0000000000       2.8400940897       2.8400940897
      2.8400940897       0.0000000000       2.8400940897
      2.8400940897       2.8400940897       0.0000000000
end unit_cell_cart
