bands_plot = .true.
conv_tol =   2.0000000000d-07
conv_window = 3
fermi_energy =   6.5589
mp_grid = 2 2 2
num_bands = 4
num_cg_steps = 200
num_iter = 4000
num_wann = 4
spn_formatted = .true.
wannier_plot = .true.
# wannier_plot_format = cube
wannier_plot_supercell = 3
wvfn_formatted = .true.

# restart = plot
write_tb = .true.
write_hr = .true.

begin atoms_frac
Si         0.0000000000       0.0000000000       0.0000000000
Si         0.2500000000       0.2500000000       0.2500000000
end atoms_frac

begin projections
c=0.67882, -0.67882, -0.67882:s
c=-0.67882, -0.67882, 0.67882:s
c=-0.67882, 0.67882, -0.67882:s
c=0.67882, 0.67882, 0.67882:s
end projections

begin unit_cell_cart
ang
      0.0000000000       2.7152650000       2.7152650000
      2.7152650000       0.0000000000       2.7152650000
      2.7152650000       2.7152650000       0.0000000000
end unit_cell_cart

begin kpoint_path
G  0.000 0.000 0.000    X  0.500 0.000 0.500
X  0.500 0.000 0.500    U  0.625 0.250 0.625
U  0.625 0.250 0.625    K  0.375 0.375 0.750
K  0.375 0.375 0.750    G  0.000 0.000 0.000
G  0.000 0.000 0.000    L  0.500 0.500 0.500
L  0.500 0.500 0.500    W  0.500 0.250 0.750
W  0.500 0.250 0.750    X  0.500 0.000 0.500
end kpoint_path

begin kpoints
  0.00000000  0.00000000  0.00000000  1.250000e-01
  0.00000000  0.00000000  0.50000000  1.250000e-01
  0.00000000  0.50000000  0.00000000  1.250000e-01
  0.00000000  0.50000000  0.50000000  1.250000e-01
  0.50000000  0.00000000  0.00000000  1.250000e-01
  0.50000000  0.00000000  0.50000000  1.250000e-01
  0.50000000  0.50000000  0.00000000  1.250000e-01
  0.50000000  0.50000000  0.50000000  1.250000e-01
end kpoints
